100
300
40
0 0
6 78
17 31
58 66
46 55
31 22
16 64
82 87
69 11
49 8
11 50
85 16
45 26
99 41
38 63
37 81
28 49
92 15
17 72
25 83
93 59
13 60
38 71
96 41
69 59
73 28
52 47
79 88
72 53
14 27
28 64
42 13
21 27
75 58
66 52
26 60
35 63
99 18
64 37
55 78
79 78
0 0
30
60
30
40
30
60
40
30
30
70
70
60
50
60
70
60
50
70
40
40
30
60
30
40
30
60
40
30
30
70
70
60
50
60
70
60
50
70
40
40
